\ENCODING=ISO-8859-1
\Problem name: IloCplex

Minimize
 obj: y1 + y2 + y3 + y4 + y5 + y6 + y7 + y8 + y9 + y10 + y11 + y12 + y13
Subject To
 c1:  - y1 + x_1_2 <= 0
 c2:  - y1 + x_1_3 <= 0
 c3:  - y1 + x_1_4 <= 0
 c4:  - y1 + x_1_5 <= 0
 c5:  - y1 + x_1_6 <= 0
 c6:  - y1 + x_1_7 <= 0
 c7:  - y1 + x_1_8 <= 0
 c8:  - y1 + x_1_9 <= 0
 c9:  - y1 + x_1_10 <= 0
 c10: - y1 + x_1_11 <= 0
 c11: - y1 + x_1_12 <= 0
 c12: - y1 + x_1_13 <= 0
 c13: - y2 + x_2_3 <= 0
 c14: - y2 + x_2_4 <= 0
 c15: - y2 + x_2_5 <= 0
 c16: - y2 + x_2_6 <= 0
 c17: - y2 + x_2_7 <= 0
 c18: - y2 + x_2_8 <= 0
 c19: - y2 + x_2_9 <= 0
 c20: - y2 + x_2_10 <= 0
 c21: - y2 + x_2_11 <= 0
 c22: - y2 + x_2_12 <= 0
 c23: - y2 + x_2_13 <= 0
 c24: - y3 + x_3_4 <= 0
 c25: - y3 + x_3_5 <= 0
 c26: - y3 + x_3_6 <= 0
 c27: - y3 + x_3_7 <= 0
 c28: - y3 + x_3_8 <= 0
 c29: - y3 + x_3_9 <= 0
 c30: - y3 + x_3_10 <= 0
 c31: - y3 + x_3_11 <= 0
 c32: - y3 + x_3_12 <= 0
 c33: - y3 + x_3_13 <= 0
 c34: - y4 + x_4_5 <= 0
 c35: - y4 + x_4_6 <= 0
 c36: - y4 + x_4_7 <= 0
 c37: - y4 + x_4_8 <= 0
 c38: - y4 + x_4_9 <= 0
 c39: - y4 + x_4_10 <= 0
 c40: - y4 + x_4_11 <= 0
 c41: - y4 + x_4_12 <= 0
 c42: - y4 + x_4_13 <= 0
 c43: - y5 + x_5_6 <= 0
 c44: - y5 + x_5_7 <= 0
 c45: - y5 + x_5_8 <= 0
 c46: - y5 + x_5_9 <= 0
 c47: - y5 + x_5_10 <= 0
 c48: - y5 + x_5_11 <= 0
 c49: - y5 + x_5_12 <= 0
 c50: - y5 + x_5_13 <= 0
 c51: - y6 + x_6_7 <= 0
 c52: - y6 + x_6_8 <= 0
 c53: - y6 + x_6_9 <= 0
 c54: - y6 + x_6_10 <= 0
 c55: - y6 + x_6_11 <= 0
 c56: - y6 + x_6_12 <= 0
 c57: - y6 + x_6_13 <= 0
 c58: - y7 + x_7_8 <= 0
 c59: - y7 + x_7_9 <= 0
 c60: - y7 + x_7_10 <= 0
 c61: - y7 + x_7_11 <= 0
 c62: - y7 + x_7_12 <= 0
 c63: - y7 + x_7_13 <= 0
 c64: - y8 + x_8_9 <= 0
 c65: - y8 + x_8_10 <= 0
 c66: - y8 + x_8_11 <= 0
 c67: - y8 + x_8_12 <= 0
 c68: - y8 + x_8_13 <= 0
 c69: - y9 + x_9_10 <= 0
 c70: - y9 + x_9_11 <= 0
 c71: - y9 + x_9_12 <= 0
 c72: - y9 + x_9_13 <= 0
 c73: - y10 + x_10_11 <= 0
 c74: - y10 + x_10_12 <= 0
 c75: - y10 + x_10_13 <= 0
 c76: - y11 + x_11_12 <= 0
 c77: - y11 + x_11_13 <= 0
 c78: - y12 + x_12_13 <= 0
 c79: y1 + y2 + y3 + y4 + y5 + y6 + y7 + y8 + y9 + y10 + y11 + y12 + y13
      + x_1_2 + x_1_3 + x_1_4 + x_1_5 + x_1_6 + x_1_7 + x_1_8 + x_1_9 + x_1_10
      + x_1_11 + x_1_12 + x_1_13 + x_2_3 + x_2_4 + x_2_5 + x_2_6 + x_2_7
      + x_2_8 + x_2_9 + x_2_10 + x_2_11 + x_2_12 + x_2_13 + x_3_4 + x_3_5
      + x_3_6 + x_3_7 + x_3_8 + x_3_9 + x_3_10 + x_3_11 + x_3_12 + x_3_13
      + x_4_5 + x_4_6 + x_4_7 + x_4_8 + x_4_9 + x_4_10 + x_4_11 + x_4_12
      + x_4_13 + x_5_6 + x_5_7 + x_5_8 + x_5_9 + x_5_10 + x_5_11 + x_5_12
      + x_5_13 + x_6_7 + x_6_8 + x_6_9 + x_6_10 + x_6_11 + x_6_12 + x_6_13
      + x_7_8 + x_7_9 + x_7_10 + x_7_11 + x_7_12 + x_7_13 + x_8_9 + x_8_10
      + x_8_11 + x_8_12 + x_8_13 + x_9_10 + x_9_11 + x_9_12 + x_9_13 + x_10_11
      + x_10_12 + x_10_13 + x_11_12 + x_11_13 + x_12_13  = 14
 c80: y1 + y2 + y3 + y4 + y5 + y6 + y7 + y8 + y9 + y10 + y11 + y12 + y13 + 2 z7
      + 3 z3 + 2 z2 + 2 z5 + 2 z4 + 2 z6 + 2 z0 + 2 z1 >= 13
 c81: z7 + z3 + z2 + z5 + z4 + z6 + z0 + z1 <= 4
Bounds
 0 <= y1 <= 1
 0 <= y2 <= 1
 0 <= y3 <= 1
 0 <= y4 <= 1
 0 <= y5 <= 1
 0 <= y6 <= 1
 0 <= y7 <= 1
 0 <= y8 <= 1
 0 <= y9 <= 1
 0 <= y10 <= 1
 0 <= y11 <= 1
 0 <= y12 <= 1
 0 <= y13 <= 1
 0 <= x_1_2 <= 1
 0 <= x_1_3 <= 1
 0 <= x_1_4 <= 1
 0 <= x_1_5 <= 1
 0 <= x_1_6 <= 1
 0 <= x_1_7 <= 1
 0 <= x_1_8 <= 1
 0 <= x_1_9 <= 1
 0 <= x_1_10 <= 1
 0 <= x_1_11 <= 1
 0 <= x_1_12 <= 1
 0 <= x_1_13 <= 1
 0 <= x_2_3 <= 1
 0 <= x_2_4 <= 1
 0 <= x_2_5 <= 1
 0 <= x_2_6 <= 1
 0 <= x_2_7 <= 1
 0 <= x_2_8 <= 1
 0 <= x_2_9 <= 1
 0 <= x_2_10 <= 1
 0 <= x_2_11 <= 1
 0 <= x_2_12 <= 1
 0 <= x_2_13 <= 1
 0 <= x_3_4 <= 1
 0 <= x_3_5 <= 1
 0 <= x_3_6 <= 1
 0 <= x_3_7 <= 1
 0 <= x_3_8 <= 1
 0 <= x_3_9 <= 1
 0 <= x_3_10 <= 1
 0 <= x_3_11 <= 1
 0 <= x_3_12 <= 1
 0 <= x_3_13 <= 1
 0 <= x_4_5 <= 1
 0 <= x_4_6 <= 1
 0 <= x_4_7 <= 1
 0 <= x_4_8 <= 1
 0 <= x_4_9 <= 1
 0 <= x_4_10 <= 1
 0 <= x_4_11 <= 1
 0 <= x_4_12 <= 1
 0 <= x_4_13 <= 1
 0 <= x_5_6 <= 1
 0 <= x_5_7 <= 1
 0 <= x_5_8 <= 1
 0 <= x_5_9 <= 1
 0 <= x_5_10 <= 1
 0 <= x_5_11 <= 1
 0 <= x_5_12 <= 1
 0 <= x_5_13 <= 1
 0 <= x_6_7 <= 1
 0 <= x_6_8 <= 1
 0 <= x_6_9 <= 1
 0 <= x_6_10 <= 1
 0 <= x_6_11 <= 1
 0 <= x_6_12 <= 1
 0 <= x_6_13 <= 1
 0 <= x_7_8 <= 1
 0 <= x_7_9 <= 1
 0 <= x_7_10 <= 1
 0 <= x_7_11 <= 1
 0 <= x_7_12 <= 1
 0 <= x_7_13 <= 1
 0 <= x_8_9 <= 1
 0 <= x_8_10 <= 1
 0 <= x_8_11 <= 1
 0 <= x_8_12 <= 1
 0 <= x_8_13 <= 1
 0 <= x_9_10 <= 1
 0 <= x_9_11 <= 1
 0 <= x_9_12 <= 1
 0 <= x_9_13 <= 1
 0 <= x_10_11 <= 1
 0 <= x_10_12 <= 1
 0 <= x_10_13 <= 1
 0 <= x_11_12 <= 1
 0 <= x_11_13 <= 1
 0 <= x_12_13 <= 1
 0 <= z7 <= 1
 0 <= z3 <= 1
 0 <= z2 <= 1
 0 <= z5 <= 1
 0 <= z4 <= 1
 0 <= z6 <= 1
 0 <= z0 <= 1
 0 <= z1 <= 1
Binaries
 y1  y2  y3  y4  y5  y6  y7  y8  y9  y10  y11  y12  y13  x_1_2  x_1_3  x_1_4 
 x_1_5  x_1_6  x_1_7  x_1_8  x_1_9  x_1_10  x_1_11  x_1_12  x_1_13  x_2_3 
 x_2_4  x_2_5  x_2_6  x_2_7  x_2_8  x_2_9  x_2_10  x_2_11  x_2_12  x_2_13 
 x_3_4  x_3_5  x_3_6  x_3_7  x_3_8  x_3_9  x_3_10  x_3_11  x_3_12  x_3_13 
 x_4_5  x_4_6  x_4_7  x_4_8  x_4_9  x_4_10  x_4_11  x_4_12  x_4_13  x_5_6 
 x_5_7  x_5_8  x_5_9  x_5_10  x_5_11  x_5_12  x_5_13  x_6_7  x_6_8  x_6_9 
 x_6_10  x_6_11  x_6_12  x_6_13  x_7_8  x_7_9  x_7_10  x_7_11  x_7_12  x_7_13 
 x_8_9  x_8_10  x_8_11  x_8_12  x_8_13  x_9_10  x_9_11  x_9_12  x_9_13 
 x_10_11  x_10_12  x_10_13  x_11_12  x_11_13  x_12_13  z7  z3  z2  z5  z4  z6 
 z0  z1 
End
